3
8
20
1 1.3 1.55 1.75 2.1
32 20 28 26 5 11 27 11 41 34 14 11 20 6 22 17 47 45 35 32 45 19 14 39 34 19 14 17 39 13 29 48 43 39 16 29 28 10 12 48 22 31 48 5 13 28 5 9 47 39 9 38 27 32 28 27 49 40 11 37 23 27 34 48 37 41 21 48 46 37 31 48 31 6 29 20 21 49 38 32 18 42 26 41 19 27 28 10 39 6 41 21 39 47 7 26 26 36 10 6 47 35 39 46 35 7 11 40 42 20 46 47 29 8 38 22 39 31 43 14 38 37 44 11 6 25 32 18 36 8 24 29 30 46 30 13 27 15 5 42 29 45 46 10 46 29 18 6 25 33 18 42 24 44 48 15 5 11 10 20 